c description: Some CNF formula
c generator: CNFgen (0.9.0)
c copyright: (C) 2012-2020 Massimo Lauria <massimo.lauria@uniroma1.it>
c url: https://massimolauria.net/cnfgen
c
p cnf 8 12
-1 2 0
1 -2 0
1 -3 4 0
1 3 -4 0
-1 -3 5 0
-1 3 -5 0
3 -6 7 0
3 6 -7 0
-3 -6 8 0
-3 6 -8 0
-3 0
6 0